CPLEX> Logfile 'cplex.log' closed.
Logfile '/home/ares/Micro-Grids/MicroGrids/tmp2v7b9fui.cplex.log' open.
CPLEX> New value for mixed integer optimality gap tolerance: 0.05
CPLEX> Problem '/home/ares/Micro-Grids/MicroGrids/tmp6su753h8.pyomo.lp' read.
Read time = 1.75 sec. (110.53 ticks)
CPLEX> MIP start file '/home/ares/Micro-Grids/MicroGrids/tmpsz2b9j8v.cplex.mst' read.
CPLEX> Problem name         : /home/ares/Micro-Grids/MicroGrids/tmp6su753h8.pyomo.lp
Objective sense      : Minimize
Variables            :  788405  [Nneg: 613203,  General Integer: 175202]
Objective nonzeros   :  613204
Linear constraints   : 1051213  [Less: 876011,  Greater: 1,  Equal: 175201]
  Nonzeros           : 2937728
  RHS nonzeros       :  262802

Variables            : Min LB: 0.000000         Max UB: 3.000000       
Objective nonzeros   : Min   : 6.124944e-06     Max   : 49374.65       
Linear constraints   :
  Nonzeros           : Min   : 6.684724e-09     Max   : 102640.8       
  RHS nonzeros       : Min   : 1.000000         Max   : 356654.2       
CPLEX> CPXPARAM_MIP_Tolerances_MIPGap                   0.050000000000000003
1 of 1 MIP starts provided solutions.
MIP start 'm1' defined initial solution with objective 1143762.1970.
Tried aggregator 2 times.
MIP Presolve eliminated 12 rows and 175201 columns.
Aggregator did 10 substitutions.
Reduced MIP has 1051191 rows, 613194 columns, and 2674926 nonzeros.
Reduced MIP has 0 binaries, 175202 generals, 0 SOSs, and 0 indicators.
Presolve time = 1.26 sec. (1246.29 ticks)
Tried aggregator 1 time.
Reduced MIP has 1051191 rows, 613194 columns, and 2674926 nonzeros.
Reduced MIP has 0 binaries, 175202 generals, 0 SOSs, and 0 indicators.
Presolve time = 2.28 sec. (1280.58 ticks)
MIP emphasis: balance optimality and feasibility.
MIP search method: dynamic search.
Parallel mode: deterministic, using up to 16 threads.
Root relaxation solution time = 2757.01 sec. (1836145.86 ticks)

        Nodes                                         Cuts/
   Node  Left     Objective  IInf  Best Integer    Best Bound    ItCnt     Gap

*     0+    0                      1143762.1970   218137.8682            80.93%
      0     0   410718.0240 63904  1143762.1970   410718.0240       49   64.09%
*     0+    0                      1119074.8722   410718.0240            63.30%
      0     0   410740.7584 34738  1119074.8722 MIRcuts: 10000    64799   63.30%
      0     0   410822.1808 62067  1119074.8722 MIRcuts: 9989    95493   63.29%
      0     0   410833.2840 36320  1119074.8722 MIRcuts: 9836   159519   63.29%
      0     0   410854.0688 33980  1119074.8722 MIRcuts: 9915   206032   63.29%
*     0+    0                       428660.5986   410854.0688             4.15%

Mixed integer rounding cuts applied:  44508

Root node processing (before b&c):
  Real time             = 17573.85 sec. (19492200.78 ticks)
Parallel b&c, 16 threads:
  Real time             =    0.00 sec. (0.00 ticks)
  Sync time (average)   =    0.00 sec.
  Wait time (average)   =    0.00 sec.
                          ------------
Total (root+branch&cut) = 17573.85 sec. (19492200.78 ticks)

Solution pool: 3 solutions saved.

MIP - Integer optimal, tolerance (0.05/1e-06):  Objective =  4.2866059863e+05
Current MIP best bound =  4.1085406883e+05 (gap = 17806.5, 4.15%)
Solution time = 17573.86 sec.  Iterations = 220976  Nodes = 0 (1)
Deterministic time = 19492203.03 ticks  (1109.16 ticks/sec)

CPLEX> Incumbent solution written to file '/home/ares/Micro-Grids/MicroGrids/tmptfdb_o1y.cplex.sol'.
CPLEX> 428660.598630974
0.5510552456962126

Renewable 1 nominal capacity is 72.0 kW
Generator 1 nominal capacity is 15.0 kW
Generator 2 nominal capacity is 0.0 kW
Battery nominal capacity is 356.7 kWh
NPC is 429.0Thousand USD
The LCOE is 0.551 $/kWh
81.36 % Renewable Penetration
9.89 % of energy curtail
46.79 % Battery usage
